(set-logic QF_S)
(declare-fun var_0xINPUT_84939 () String)
(assert (and (not (= var_0xINPUT_84939 "AA1ND6MEXd")) (= (len var_0xINPUT_84939) 0) (not (= var_0xINPUT_84939 "Example:")) (= (len var_0xINPUT_84939) 0) (not (= var_0xINPUT_84939 "Example:")) (not (= var_0xINPUT_84939 "AA1ND6MEXd"))))
(check-sat var_0xINPUT_84939)